;(set-option :produce-unsat-cores true )
(set-logic ALL_SUPPORTED )
(declare-sort A$ 0 )
(declare-sort Nat$ 0 )
(declare-sort Enat_bool_fun$ 0 )
(declare-sort Enat_enat_fun$ 0 )
(declare-datatypes ()((Nat_option$ (none$ )(some$ (the$ Nat$ )))(Enat$ (abs_enat$ (rep_enat$ Nat_option$ )))))
(declare-sort A_llist$ 0)
(declare-fun lNil$ ()A_llist$)
(declare-fun lhd$ (A_llist$)A$)
(declare-fun ltl$ (A_llist$)A_llist$)
(declare-fun lCons$ (A$ A_llist$ )A_llist$)
(declare-fun ma$ ()Nat$ )
(declare-fun mb$ ()Nat$ )
(declare-fun na$ ()Nat$ )
(declare-fun nb$ ()Nat$ )
(declare-fun xs$ ()A_llist$ )
(declare-fun suc$ (Nat$ )Nat$ )
(declare-fun xs$a ()A_llist$ )
(declare-fun xsa$ ()A_llist$ )
(declare-fun enat$ (Nat$ )Enat$ )
(declare-fun less$ (Enat$ )Enat_bool_fun$ )
(declare-fun fun_app$ (Enat_bool_fun$ Enat$ )Bool )
(declare-fun less_eq$ (Nat$ Nat$ )Bool )
(declare-fun llength$ (A_llist$ )Enat$ )
(declare-fun fun_app$a (Enat_enat_fun$ Enat$ )Enat$ )
(declare-fun lstrict_prefix$ (A_llist$ A_llist$ )Bool )
(assert (! (not (fun_app$ (less$ (enat$ nb$ ))(llength$ xs$ ))):named a0 ))
(assert (! (=> (forall ((?v0 Nat$ ))(=> (= mb$ (suc$ ?v0 ))false ))false ):named a1 ))
(assert (! (fun_app$ (less$ (enat$ mb$ ))(llength$ xsa$ )):named a2 ))
(assert (! (fun_app$ (less$ (enat$ (suc$ nb$ )))(llength$ xsa$ )):named a3 ))
(assert (! (fun_app$ (less$ (enat$ ma$ ))(llength$ xs$a )):named a4 ))
(assert (! (fun_app$ (less$ (enat$ na$ ))(llength$ xs$a )):named a5 ))
(assert (! (less_eq$ (suc$ nb$ )mb$ ):named a6 ))
(assert (! (forall ((?v0 Nat$ )(?v1 Nat$ ))(= (= (enat$ ?v0 )(enat$ ?v1 ))(= ?v0 ?v1 ))):named a7 ))
(assert (! (forall ((?v0 Enat$ )(?v1 Nat$ ))(=> (fun_app$ (less$ ?v0 )(enat$ ?v1 ))(exists ((?v2 Nat$ ))(= ?v0 (enat$ ?v2 ))))):named a8 ))
(assert (! (forall ((?v0 Enat_bool_fun$ )(?v1 Enat$ ))(=> (forall ((?v2 Enat$ ))(=> (forall ((?v3 Enat$ ))(=> (fun_app$ (less$ ?v3 )?v2 )(fun_app$ ?v0 ?v3 )))(fun_app$ ?v0 ?v2 )))(fun_app$ ?v0 ?v1 ))):named a9 ))
(assert (! (forall ((?v0 A_llist$ )(?v1 A_llist$ ))(=> (lstrict_prefix$ ?v0 ?v1 )(fun_app$ (less$ (llength$ ?v0 ))(llength$ ?v1 )))):named a10 ))
(assert (! (forall ((?v0 Enat$ )(?v1 Enat$ ))(= (not (= ?v0 ?v1 ))(or (fun_app$ (less$ ?v0 )?v1 )(fun_app$ (less$ ?v1 )?v0 )))):named a11 ))
(assert (! (forall ((?v0 Enat$ )(?v1 Enat$ ))(= (not (fun_app$ (less$ ?v0 )?v1 ))(or (fun_app$ (less$ ?v1 )?v0 )(= ?v0 ?v1 )))):named a12 ))
(assert (! (forall ((?v0 Enat$ )(?v1 Enat$ ))(=> (and (=> (fun_app$ (less$ ?v0 )?v1 )false )(and (=> (= ?v0 ?v1 )false )(=> (fun_app$ (less$ ?v1 )?v0 )false )))false )):named a13 ))
(assert (! (forall ((?v0 Enat_bool_fun$ )(?v1 Enat$ ))(=> (forall ((?v2 Enat$ ))(=> (forall ((?v3 Enat$ ))(=> (fun_app$ (less$ ?v3 )?v2 )(fun_app$ ?v0 ?v3 )))(fun_app$ ?v0 ?v2 )))(fun_app$ ?v0 ?v1 ))):named a14 ))
(assert (! (forall ((?v0 Enat$ )(?v1 Enat_enat_fun$ )(?v2 Enat$ )(?v3 Enat$ ))(=> (and (= ?v0 (fun_app$a ?v1 ?v2 ))(and (fun_app$ (less$ ?v2 )?v3 )(forall ((?v4 Enat$ )(?v5 Enat$ ))(=> (fun_app$ (less$ ?v4 )?v5 )(fun_app$ (less$ (fun_app$a ?v1 ?v4 ))(fun_app$a ?v1 ?v5 ))))))(fun_app$ (less$ ?v0 )(fun_app$a ?v1 ?v3 )))):named a15 ))
(check-sat )
;(get-unsat-core )
